(set-logic QF_SLIA)
(set-option :produce-models true)
(declare-const X String)
; ^([34|37]{2})([0-9]{13})$
(assert (not (str.in_re X (re.++ ((_ re.loop 2 2) (re.union (str.to_re "3") (str.to_re "4") (str.to_re "|") (str.to_re "7"))) ((_ re.loop 13 13) (re.range "0" "9")) (str.to_re "\u{0a}")))))
; ^([1-9]|1[0-2]|0[1-9]){1}(:[0-5][0-9][ ][aApP][mM]){1}$
(assert (not (str.in_re X (re.++ ((_ re.loop 1 1) (re.union (re.range "1" "9") (re.++ (str.to_re "1") (re.range "0" "2")) (re.++ (str.to_re "0") (re.range "1" "9")))) ((_ re.loop 1 1) (re.++ (str.to_re ":") (re.range "0" "5") (re.range "0" "9") (str.to_re " ") (re.union (str.to_re "a") (str.to_re "A") (str.to_re "p") (str.to_re "P")) (re.union (str.to_re "m") (str.to_re "M")))) (str.to_re "\u{0a}")))))
; ^([0]\d|[1][0-2])\/([0-2]\d|[3][0-1])\/([2][01]|[1][6-9])\d{2}(\s([0-1]\d|[2][0-3])(\:[0-5]\d){1,2})?$
(assert (not (str.in_re X (re.++ (re.union (re.++ (str.to_re "0") (re.range "0" "9")) (re.++ (str.to_re "1") (re.range "0" "2"))) (str.to_re "/") (re.union (re.++ (re.range "0" "2") (re.range "0" "9")) (re.++ (str.to_re "3") (re.range "0" "1"))) (str.to_re "/") (re.union (re.++ (str.to_re "2") (re.union (str.to_re "0") (str.to_re "1"))) (re.++ (str.to_re "1") (re.range "6" "9"))) ((_ re.loop 2 2) (re.range "0" "9")) (re.opt (re.++ (re.union (str.to_re " ") (str.to_re "\u{09}") (str.to_re "\u{0a}") (str.to_re "\u{0c}") (str.to_re "\u{0d}")) (re.union (re.++ (re.range "0" "1") (re.range "0" "9")) (re.++ (str.to_re "2") (re.range "0" "3"))) ((_ re.loop 1 2) (re.++ (str.to_re ":") (re.range "0" "5") (re.range "0" "9"))))) (str.to_re "\u{0a}")))))
; Points\d+Host\u{3a}\stoBasicwww\x2Ewebcruiser\x2Ecc
(assert (not (str.in_re X (re.++ (str.to_re "Points") (re.+ (re.range "0" "9")) (str.to_re "Host:") (re.union (str.to_re " ") (str.to_re "\u{09}") (str.to_re "\u{0a}") (str.to_re "\u{0c}") (str.to_re "\u{0d}")) (str.to_re "toBasicwww.webcruiser.cc\u{0a}")))))
; [a-zA-Z0-9!#\$%&'\*\+\-\/=\?\^_`{\|}~]
(assert (str.in_re X (re.++ (re.union (re.range "a" "z") (re.range "A" "Z") (re.range "0" "9") (str.to_re "!") (str.to_re "#") (str.to_re "$") (str.to_re "%") (str.to_re "&") (str.to_re "'") (str.to_re "*") (str.to_re "+") (str.to_re "-") (str.to_re "/") (str.to_re "=") (str.to_re "?") (str.to_re "^") (str.to_re "_") (str.to_re "`") (str.to_re "{") (str.to_re "|") (str.to_re "}") (str.to_re "~")) (str.to_re "\u{0a}"))))
(check-sat)
